\ENCODING=ISO-8859-1
\Problem name: MIP2

Minimize
 obj1: x0_0 + x0_1 + x1_0 + x1_1 + x2_0 + x2_1 + x3_0 + x3_1 + y0_0 + y0_1
       + y0_2 + y0_3 + y1_0 + y1_1 + y1_2 + y1_3 + y2_0 + y2_1 + y2_2 + y2_3
       + y3_0 + y3_1 + y3_2 + y3_3 + z0_0 + z0_1 + z0_2 + z0_3 + z1_0 + z1_1
       + z1_2 + z1_3 + z2_0 + z2_1 + z2_2 + z2_3 + z3_0 + z3_1 + z3_2 + z3_3
       + s0 + s1 + s2 + s3 + c0 + c1 + c2 + c3 + t0 + t1 + t2 + t3 + Tmax
Subject To
 a0:    x0_0 + x0_1  = 1
 a1:    x1_0 + x1_1  = 1
 a2:    x2_0 + x2_1  = 1
 a3:    x3_0 + x3_1  = 1
 h01:   y0_1 + y1_0 <= 1
 h02:   y0_2 + y2_0 <= 1
 h03:   y0_3 + y3_0 <= 1
 h10:   y0_1 + y1_0 <= 1
 h12:   y1_2 + y2_1 <= 1
 h13:   y1_3 + y3_1 <= 1
 h20:   y0_2 + y2_0 <= 1
 h21:   y1_2 + y2_1 <= 1
 h23:   y2_3 + y3_2 <= 1
 h30:   y0_3 + y3_0 <= 1
 h31:   y1_3 + y3_1 <= 1
 h32:   y2_3 + y3_2 <= 1
 v01:   z0_1 + z1_0 <= 1
 v02:   z0_2 + z2_0 <= 1
 v03:   z0_3 + z3_0 <= 1
 v10:   z0_1 + z1_0 <= 1
 v12:   z1_2 + z2_1 <= 1
 v13:   z1_3 + z3_1 <= 1
 v20:   z0_2 + z2_0 <= 1
 v21:   z1_2 + z2_1 <= 1
 v23:   z2_3 + z3_2 <= 1
 v30:   z0_3 + z3_0 <= 1
 v31:   z1_3 + z3_1 <= 1
 v32:   z2_3 + z3_2 <= 1
 ss01:  y0_1 + y1_0 + z0_1 + z1_0  = 1
 ss02:  y0_2 + y2_0 + z0_2 + z2_0  = 1
 ss03:  y0_3 + y3_0 + z0_3 + z3_0  = 1
 ss10:  y0_1 + y1_0 + z0_1 + z1_0  = 1
 ss12:  y1_2 + y2_1 + z1_2 + z2_1  = 1
 ss13:  y1_3 + y3_1 + z1_3 + z3_1  = 1
 ss20:  y0_2 + y2_0 + z0_2 + z2_0  = 1
 ss21:  y1_2 + y2_1 + z1_2 + z2_1  = 1
 ss23:  y2_3 + y3_2 + z2_3 + z3_2  = 1
 ss30:  y0_3 + y3_0 + z0_3 + z3_0  = 1
 ss31:  y1_3 + y3_1 + z1_3 + z3_1  = 1
 ss32:  y2_3 + y3_2 + z2_3 + z3_2  = 1
 s010:  - 50000 y0_1 - s0 + s1 >= -49999
 s011:  - 50000 y0_1 - s0 + s1 >= -49995
 s020:  - 50000 y0_2 - s0 + s2 >= -49999
 s021:  - 50000 y0_2 - s0 + s2 >= -49995
 s030:  - 50000 y0_3 - s0 + s3 >= -49999
 s031:  - 50000 y0_3 - s0 + s3 >= -49995
 s100:  - 50000 y1_0 + s0 - s1 >= -49998
 s101:  - 50000 y1_0 + s0 - s1 >= -49994
 s120:  - 50000 y1_2 - s1 + s2 >= -49998
 s121:  - 50000 y1_2 - s1 + s2 >= -49994
 s130:  - 50000 y1_3 - s1 + s3 >= -49998
 s131:  - 50000 y1_3 - s1 + s3 >= -49994
 s200:  - 50000 y2_0 + s0 - s2 >= -49997
 s201:  - 50000 y2_0 + s0 - s2 >= -49993
 s210:  - 50000 y2_1 + s1 - s2 >= -49997
 s211:  - 50000 y2_1 + s1 - s2 >= -49993
 s230:  - 50000 y2_3 - s2 + s3 >= -49997
 s231:  - 50000 y2_3 - s2 + s3 >= -49993
 s300:  - 50000 y3_0 + s0 - s3 >= -49996
 s301:  - 50000 y3_0 + s0 - s3 >= -49992
 s310:  - 50000 y3_1 + s1 - s3 >= -49996
 s311:  - 50000 y3_1 + s1 - s3 >= -49992
 s320:  - 50000 y3_2 + s2 - s3 >= -49996
 s321:  - 50000 y3_2 + s2 - s3 >= -49992
 vz01:  - x0_1 + x1_1 + 2 z0_1 >= -1
 vz02:  - x0_1 + x2_1 + 2 z0_2 >= -1
 vz03:  - x0_1 + x3_1 + 2 z0_3 >= -1
 vz10:  x0_1 - x1_1 + 2 z0_2 >= -1
 vz12:  - x1_1 + x2_1 + 2 z1_0 >= -1
 vz13:  - x1_1 + x3_1 + 2 z1_1 >= -1
 vz20:  x0_1 - x2_1 + 2 z1_0 >= -1
 vz21:  x1_1 - x2_1 + 2 z1_1 >= -1
 vz23:  - x2_1 + x3_1 + 2 z1_3 >= -1
 vz30:  x0_1 - x3_1 + 2 z1_2 >= -1
 vz31:  x1_1 - x3_1 + 2 z1_3 >= -1
 vz32:  x2_1 - x3_1 + 2 z2_0 >= -1
 c0:    - x0_0 - 5 x2_0 - s0 + c0  = 0
 c1:    - 2 x0_1 - 6 x2_1 - s1 + c1  = 0
 c2:    - 3 x1_0 - 7 x3_0 - s2 + c2  = 0
 c3:    - 4 x1_1 - 8 x3_1 - s3 + c3  = 0
 t0:    - c0 + t0 >= 10
 t1:    - c1 + t1 >= 6
 t2:    - c2 + t2 >= 8
 t3:    - c3 + t3 >= 9
 r0:    s0 >= 5
 r1:    s1 >= 3
 r2:    s2 >= 1
 r3:    s3 >= 4
 Tmax0: - t0 + Tmax >= 0
 Tmax1: - t1 + Tmax >= 0
 Tmax2: - t2 + Tmax >= 0
 Tmax3: - t3 + Tmax >= 0
Bounds
 0 <= x0_0 <= 1
 0 <= x0_1 <= 1
 0 <= x1_0 <= 1
 0 <= x1_1 <= 1
 0 <= x2_0 <= 1
 0 <= x2_1 <= 1
 0 <= x3_0 <= 1
 0 <= x3_1 <= 1
 0 <= y0_0 <= 1
 0 <= y0_1 <= 1
 0 <= y0_2 <= 1
 0 <= y0_3 <= 1
 0 <= y1_0 <= 1
 0 <= y1_1 <= 1
 0 <= y1_2 <= 1
 0 <= y1_3 <= 1
 0 <= y2_0 <= 1
 0 <= y2_1 <= 1
 0 <= y2_2 <= 1
 0 <= y2_3 <= 1
 0 <= y3_0 <= 1
 0 <= y3_1 <= 1
 0 <= y3_2 <= 1
 0 <= y3_3 <= 1
 0 <= z0_0 <= 1
 0 <= z0_1 <= 1
 0 <= z0_2 <= 1
 0 <= z0_3 <= 1
 0 <= z1_0 <= 1
 0 <= z1_1 <= 1
 0 <= z1_2 <= 1
 0 <= z1_3 <= 1
 0 <= z2_0 <= 1
 0 <= z2_1 <= 1
 0 <= z2_2 <= 1
 0 <= z2_3 <= 1
 0 <= z3_0 <= 1
 0 <= z3_1 <= 1
 0 <= z3_2 <= 1
 0 <= z3_3 <= 1
 0 <= s0 <= 50000
 0 <= s1 <= 50000
 0 <= s2 <= 50000
 0 <= s3 <= 50000
 0 <= c0 <= 50000
 0 <= c1 <= 50000
 0 <= c2 <= 50000
 0 <= c3 <= 50000
 0 <= t0 <= 50000
 0 <= t1 <= 50000
 0 <= t2 <= 50000
 0 <= t3 <= 50000
 0 <= Tmax <= 50000
Generals
 x0_0  x0_1  x1_0  x1_1  x2_0  x2_1  x3_0  x3_1  y0_0  y0_1  y0_2  y0_3  y1_0 
 y1_1  y1_2  y1_3 
End
